Route #1: 43 35 9 49 39 47
Route #2: 48 44 24 52 23 54 13
Route #3: 50 1 45 6
Route #4: 31 42 26 20 46 14
Route #5: 41 28 19 27 22 30
Route #6: 12 10 5 53 40 16 38 32
Route #7: 37 3 17 34 4 7
Route #8: 8 21 18 29 25
Route #9: 36 33 2 51 11 15
Cost 1099.8395308645827